c --- [ banner ] -------------------------------------------------------------
c 
c CaDiCaL Radically Simplified CDCL SAT Solver
c Copyright (c) 2016-2021 A. Biere, M. Fleury, N. Froleyks
c 
c Version 1.5.2 9c38a080b32c28d805e8e6ca21849856b0cda605
c g++ (Ubuntu 7.5.0-3ubuntu1~18.04) 7.5.0 -Wall -Wextra -O3 -DNDEBUG
c Wed Feb 16 23:15:36 EST 2022 Linux fac-vanhoeve01 5.4.0-99-generic x86_64
c 
c --- [ limit ] --------------------------------------------------------------
c 
c setting time limit to 600 seconds real time (due to '-t 600')
c setting conflict limit to 1000000000 conflicts (due to '1000000000')
c 
c --- [ parsing input ] ------------------------------------------------------
c 
c reading DIMACS file from 'ddfwcnfs/games120.col_9.cnf'
c opening file to read 'ddfwcnfs/games120.col_9.cnf'
c found 'p cnf 1080 5376' header
c parsed 5376 clauses in 0.00 seconds process time
c closing file 'ddfwcnfs/games120.col_9.cnf'
c after reading 66668 bytes 0.1 MB
c 
c --- [ options ] ------------------------------------------------------------
c 
c all options are set to their default value
c 
c --- [ solving ] ------------------------------------------------------------
c 
c time measured in process time since initialization
c 
c  seconds  reductions  redundant irredundant
c         MB    restarts       trail    variables
c          level   conflicts       glue     remaining
c 
c *  0.00  4  0 0   0    0    0  0% 0 5295 999 92%
c l  0.00  4  0 0   0    0    0  0% 0 5295 999 92%
c 1  0.00  4  0 0   0    0    0  0% 0 5295 999 92%
c 
c --- [ result ] -------------------------------------------------------------
c 
s SATISFIABLE
v -1 -2 -3 -4 -5 -6 -7 -8 9 -10 -11 -12 -13 -14 -15 -16 -17 18 19 -20 -21 -22
v -23 -24 -25 -26 -27 -28 -29 -30 -31 -32 -33 -34 -35 36 -37 -38 -39 -40 -41
v -42 -43 44 -45 -46 -47 -48 -49 -50 -51 -52 53 -54 -55 -56 -57 -58 -59 -60
v -61 -62 63 -64 -65 -66 -67 -68 -69 -70 -71 72 -73 -74 -75 -76 -77 -78 -79
v -80 81 -82 -83 -84 -85 -86 -87 -88 89 -90 -91 -92 -93 -94 -95 -96 -97 -98 99
v -100 -101 -102 -103 -104 -105 -106 107 -108 -109 -110 -111 -112 -113 -114
v 115 -116 -117 -118 -119 -120 -121 -122 123 -124 -125 -126 -127 -128 -129
v -130 -131 -132 -133 134 -135 -136 -137 -138 -139 -140 -141 -142 143 -144
v -145 -146 -147 -148 -149 -150 151 -152 -153 -154 -155 -156 -157 -158 -159
v -160 161 -162 -163 -164 -165 -166 -167 -168 -169 -170 171 -172 -173 -174
v -175 -176 -177 178 -179 -180 -181 -182 -183 -184 -185 -186 187 -188 -189
v -190 191 -192 -193 -194 -195 -196 -197 -198 -199 -200 -201 -202 -203 -204
v 205 -206 -207 -208 -209 -210 -211 -212 -213 214 -215 -216 -217 -218 -219
v -220 -221 222 -223 -224 -225 -226 -227 -228 -229 -230 -231 -232 -233 234
v -235 -236 -237 -238 -239 -240 -241 -242 243 -244 -245 -246 -247 -248 -249
v -250 251 -252 -253 -254 -255 -256 -257 -258 259 -260 -261 -262 -263 -264
v -265 -266 -267 -268 269 -270 -271 -272 -273 -274 -275 -276 -277 278 -279
v -280 -281 -282 -283 -284 -285 -286 -287 288 -289 -290 -291 -292 -293 294
v -295 -296 -297 -298 -299 -300 -301 -302 303 -304 -305 -306 -307 -308 -309
v -310 -311 312 -313 -314 -315 -316 -317 -318 -319 -320 -321 322 -323 -324
v -325 -326 -327 -328 -329 -330 -331 -332 333 -334 -335 -336 -337 338 -339
v -340 -341 -342 -343 -344 -345 -346 347 -348 -349 -350 -351 -352 -353 -354
v -355 -356 -357 -358 -359 360 -361 -362 -363 -364 365 -366 -367 -368 -369
v -370 -371 372 -373 -374 -375 -376 -377 -378 -379 -380 -381 -382 383 -384
v -385 -386 -387 -388 -389 -390 391 -392 -393 -394 -395 -396 -397 -398 -399
v -400 -401 -402 -403 404 -405 -406 -407 -408 -409 -410 -411 412 -413 -414
v -415 -416 -417 -418 -419 420 -421 -422 -423 -424 -425 -426 -427 428 -429
v -430 -431 -432 -433 -434 -435 -436 -437 -438 -439 440 -441 -442 -443 -444
v -445 -446 -447 448 -449 -450 -451 -452 -453 454 -455 -456 -457 -458 -459
v -460 -461 -462 -463 -464 465 -466 -467 -468 -469 -470 -471 -472 -473 -474
v 475 -476 -477 -478 -479 -480 -481 482 -483 -484 -485 -486 -487 -488 -489 490
v -491 -492 -493 -494 -495 -496 -497 -498 -499 500 -501 -502 -503 -504 -505
v -506 -507 -508 509 -510 -511 -512 -513 -514 -515 -516 -517 -518 -519 520
v -521 -522 -523 -524 -525 526 -527 -528 -529 -530 -531 -532 -533 534 -535
v -536 -537 -538 -539 -540 -541 -542 -543 -544 -545 546 -547 -548 -549 -550
v -551 -552 553 -554 -555 -556 -557 -558 -559 -560 -561 -562 563 -564 -565
v -566 -567 -568 -569 -570 -571 -572 573 -574 -575 -576 -577 -578 579 -580
v -581 -582 -583 -584 -585 -586 -587 -588 -589 -590 591 -592 -593 -594 -595
v -596 -597 -598 599 -600 -601 -602 -603 -604 -605 -606 -607 -608 -609 -610
v -611 612 -613 -614 -615 -616 -617 -618 -619 620 -621 -622 -623 624 -625 -626
v -627 -628 -629 -630 -631 -632 -633 -634 -635 636 -637 -638 -639 -640 -641
v -642 -643 -644 -645 646 -647 -648 -649 -650 -651 -652 653 -654 -655 -656
v -657 -658 -659 -660 -661 662 -663 -664 -665 -666 -667 -668 -669 670 -671
v -672 -673 -674 -675 -676 677 -678 -679 -680 -681 -682 -683 -684 -685 -686
v -687 688 -689 -690 -691 -692 -693 -694 -695 -696 -697 -698 -699 -700 701
v -702 -703 -704 -705 -706 -707 708 -709 -710 -711 -712 -713 -714 -715 716
v -717 -718 -719 -720 -721 -722 -723 724 -725 -726 -727 -728 -729 -730 -731
v 732 -733 -734 -735 -736 -737 -738 -739 -740 741 -742 -743 -744 -745 -746
v -747 -748 -749 -750 -751 -752 -753 754 -755 -756 -757 -758 -759 -760 -761
v -762 763 -764 -765 -766 -767 -768 769 -770 -771 -772 -773 -774 -775 776 -777
v -778 -779 -780 -781 -782 -783 -784 -785 786 -787 -788 -789 -790 -791 -792
v -793 794 -795 -796 -797 -798 -799 -800 -801 -802 -803 -804 -805 -806 807
v -808 -809 -810 -811 -812 -813 -814 -815 -816 817 -818 -819 -820 -821 -822
v -823 -824 825 -826 -827 -828 -829 -830 831 -832 -833 -834 -835 -836 -837
v -838 -839 840 -841 -842 -843 -844 -845 -846 -847 -848 -849 -850 851 -852
v -853 -854 -855 -856 857 -858 -859 -860 -861 -862 -863 -864 -865 -866 867
v -868 -869 -870 -871 -872 -873 -874 -875 876 -877 -878 -879 -880 -881 -882
v -883 -884 -885 886 -887 -888 -889 -890 -891 -892 893 -894 -895 -896 -897
v -898 -899 -900 -901 -902 -903 -904 -905 906 -907 -908 -909 -910 -911 -912
v 913 -914 -915 -916 -917 -918 -919 -920 -921 -922 -923 -924 -925 926 -927
v -928 -929 -930 -931 -932 -933 -934 935 -936 -937 -938 -939 -940 -941 -942
v -943 -944 945 -946 -947 -948 -949 -950 -951 -952 -953 954 -955 -956 957 -958
v -959 -960 -961 -962 -963 -964 965 -966 -967 -968 -969 -970 -971 -972 -973
v -974 -975 976 -977 -978 -979 -980 -981 -982 -983 -984 -985 986 -987 -988
v -989 -990 -991 -992 -993 -994 -995 996 -997 -998 -999 -1000 -1001 -1002
v -1003 -1004 1005 -1006 -1007 -1008 -1009 -1010 -1011 1012 -1013 -1014 -1015
v -1016 -1017 -1018 -1019 -1020 -1021 -1022 -1023 -1024 1025 -1026 -1027 -1028
v -1029 -1030 1031 -1032 -1033 -1034 -1035 -1036 -1037 -1038 -1039 -1040 -1041
v -1042 1043 -1044 -1045 1046 -1047 -1048 -1049 -1050 -1051 -1052 -1053 -1054
v 1055 -1056 -1057 -1058 -1059 -1060 -1061 -1062 -1063 1064 -1065 -1066 -1067
v -1068 -1069 -1070 -1071 1072 -1073 -1074 -1075 -1076 -1077 -1078 -1079 -1080
v 0
c 
c --- [ run-time profiling ] -------------------------------------------------
c 
c process time taken by individual solving procedures
c (percentage relative to process time for solving)
c 
c         0.00  856.51% parse
c         0.00   57.69% search
c         0.00   56.80% lucky
c         0.00    0.00% simplify
c   =================================
c         0.00    8.97% solve
c 
c last line shows process time for solving
c (percentage relative to total process time)
c 
c --- [ statistics ] ---------------------------------------------------------
c 
c fixed:                        81         7.50 %  of all variables
c lucky:                         1       100.00 %  of tried
c minimized:                     0         0.00 %  learned literals
c shrunken:                      0         0.00 %  learned literals
c minishrunken:                  0         0.00 %  learned literals
c propagations:                 81         0.24 M  per second
c 
c seconds are measured in process time for solving
c 
c --- [ resources ] ----------------------------------------------------------
c 
c total process time since initialization:         0.00    seconds
c total real time since initialization:            0.00    seconds
c maximum resident set size of process:            4.09    MB
c 
c --- [ shutting down ] ------------------------------------------------------
c 
c exit 10
